results/solutions 6-hrs compact/abz6.sol
# Objective value = 943
y(1,1,1) 0
y(1,1,2) 0
y(1,1,3) 0
y(1,1,4) 0
y(1,1,5) 0
y(1,1,6) 0
y(1,1,7) 0
y(1,1,8) 0
y(1,1,9) 0
y(1,1,10) 0
y(2,2,1) 0
y(2,2,2) 0
y(2,2,3) 0
y(2,2,4) 0
y(2,2,5) 0
y(2,2,6) 0
y(2,2,7) 0
y(2,2,8) 0
y(2,2,9) 0
y(2,2,10) 0
y(3,3,1) 0
y(3,3,2) 0
y(3,3,3) 0
y(3,3,4) 0
y(3,3,5) 0
y(3,3,6) 0
y(3,3,7) 0
y(3,3,8) 0
y(3,3,9) 0
y(3,3,10) 0
y(4,4,1) 0
y(4,4,2) 0
y(4,4,3) 0
y(4,4,4) 0
y(4,4,5) 0
y(4,4,6) 0
y(4,4,7) 0
y(4,4,8) 0
y(4,4,9) 0
y(4,4,10) 0
y(5,5,1) 0
y(5,5,2) 0
y(5,5,3) 0
y(5,5,4) 0
y(5,5,5) 0
y(5,5,6) 0
y(5,5,7) 0
y(5,5,8) 0
y(5,5,9) 0
y(5,5,10) 0
y(6,6,1) 0
y(6,6,2) 0
y(6,6,3) 0
y(6,6,4) 0
y(6,6,5) 0
y(6,6,6) 0
y(6,6,7) 0
y(6,6,8) 0
y(6,6,9) 0
y(6,6,10) 0
y(7,7,1) 0
y(7,7,2) 0
y(7,7,3) 0
y(7,7,4) 0
y(7,7,5) 0
y(7,7,6) 0
y(7,7,7) 0
y(7,7,8) 0
y(7,7,9) 0
y(7,7,10) 0
y(8,8,1) 0
y(8,8,2) 0
y(8,8,3) 0
y(8,8,4) 0
y(8,8,5) 0
y(8,8,6) 0
y(8,8,7) 0
y(8,8,8) 0
y(8,8,9) 0
y(8,8,10) 0
y(9,9,1) 0
y(9,9,2) 0
y(9,9,3) 0
y(9,9,4) 0
y(9,9,5) 0
y(9,9,6) 0
y(9,9,7) 0
y(9,9,8) 0
y(9,9,9) 0
y(9,9,10) 0
y(10,10,1) 0
y(10,10,2) 0
y(10,10,3) 0
y(10,10,4) 0
y(10,10,5) 0
y(10,10,6) 0
y(10,10,7) 0
y(10,10,8) 0
y(10,10,9) 0
y(10,10,10) 0
Z 943
x(1,8) 18
x(1,9) 80
x(1,6) 128
x(1,4) 168
x(1,5) 252
x(1,7) 299
x(1,3) 337
x(1,1) 419
x(1,10) 762
x(1,2) 808
x(2,3) 47
x(2,6) 0
x(2,9) 186
x(2,10) 278
x(2,2) 300
x(2,5) 393
x(2,8) 422
x(2,4) 495
x(2,1) 720
x(2,7) 876
x(3,2) 0
x(3,8) 105
x(3,7) 185
x(3,3) 207
x(3,10) 240
x(3,1) 301
x(3,5) 422
x(3,4) 462
x(3,9) 687
x(3,6) 847
x(4,5) 25
x(4,9) 110
x(4,6) 226
x(4,10) 324
x(4,4) 412
x(4,7) 448
x(4,3) 523
x(4,2) 597
x(4,1) 643
x(4,8) 793
x(5,9) 0
x(5,10) 60
x(5,8) 80
x(5,4) 105
x(5,5) 168
x(5,1) 249
x(5,2) 567
x(5,6) 603
x(5,7) 725
x(5,3) 779
x(6,4) 0
x(6,10) 87
x(6,6) 174
x(6,3) 233
x(6,5) 328
x(6,2) 393
x(6,7) 523
x(6,9) 545
x(6,1) 798
x(6,8) 878
x(7,3) 144
x(7,6) 47
x(7,8) 245
x(7,7) 337
x(7,10) 519
x(7,1) 600
x(7,5) 736
x(7,9) 762
x(7,4) 816
x(7,2) 874
x(8,5) 5
x(8,7) 25
x(8,6) 153
x(8,9) 313
x(8,10) 421
x(8,3) 483
x(8,1) 517
x(8,2) 632
x(8,8) 713
x(8,4) 897
x(9,7) 228
x(9,10) 160
x(9,6) 294
x(9,9) 392
x(9,8) 478
x(9,1) 544
x(9,4) 600
x(9,2) 713
x(9,5) 818
x(9,3) 865
x(10,1) 0
x(10,4) 252
x(10,8) 302
x(10,3) 419
x(10,2) 490
x(10,6) 569
x(10,9) 603
x(10,5) 687
x(10,10) 786
x(10,7) 832
y(1,2,1) 1
y(1,2,2) 0
y(1,2,3) 0
y(1,2,4) 1
y(1,2,5) 1
y(1,2,6) 0
y(1,2,7) 1
y(1,2,8) 1
y(1,2,9) 1
y(1,2,10) 0
y(1,3,1) 0
y(1,3,2) 0
y(1,3,3) 0
y(1,3,4) 1
y(1,3,5) 1
y(1,3,6) 1
y(1,3,7) 0
y(1,3,8) 1
y(1,3,9) 1
y(1,3,10) 0
y(1,4,1) 1
y(1,4,2) 0
y(1,4,3) 1
y(1,4,4) 1
y(1,4,5) 0
y(1,4,6) 1
y(1,4,7) 1
y(1,4,8) 1
y(1,4,9) 1
y(1,4,10) 0
y(1,5,1) 0
y(1,5,2) 0
y(1,5,3) 1
y(1,5,4) 0
y(1,5,5) 0
y(1,5,6) 1
y(1,5,7) 1
y(1,5,8) 1
y(1,5,9) 0
y(1,5,10) 0
y(1,6,1) 1
y(1,6,2) 0
y(1,6,3) 0
y(1,6,4) 0
y(1,6,5) 1
y(1,6,6) 1
y(1,6,7) 1
y(1,6,8) 1
y(1,6,9) 1
y(1,6,10) 0
y(1,7,1) 1
y(1,7,2) 1
y(1,7,3) 0
y(1,7,4) 1
y(1,7,5) 1
y(1,7,6) 0
y(1,7,7) 1
y(1,7,8) 1
y(1,7,9) 1
y(1,7,10) 0
y(1,8,1) 1
y(1,8,2) 0
y(1,8,3) 1
y(1,8,4) 1
y(1,8,5) 0
y(1,8,6) 1
y(1,8,7) 0
y(1,8,8) 1
y(1,8,9) 1
y(1,8,10) 0
y(1,9,1) 1
y(1,9,2) 0
y(1,9,3) 1
y(1,9,4) 1
y(1,9,5) 1
y(1,9,6) 1
y(1,9,7) 0
y(1,9,8) 1
y(1,9,9) 1
y(1,9,10) 0
y(1,10,1) 0
y(1,10,2) 0
y(1,10,3) 1
y(1,10,4) 1
y(1,10,5) 1
y(1,10,6) 1
y(1,10,7) 1
y(1,10,8) 1
y(1,10,9) 1
y(1,10,10) 1
y(2,1,1) 0
y(2,1,2) 1
y(2,1,3) 1
y(2,1,4) 0
y(2,1,5) 0
y(2,1,6) 1
y(2,1,7) 0
y(2,1,8) 0
y(2,1,9) 0
y(2,1,10) 1
y(2,3,1) 0
y(2,3,2) 0
y(2,3,3) 1
y(2,3,4) 0
y(2,3,5) 1
y(2,3,6) 1
y(2,3,7) 0
y(2,3,8) 0
y(2,3,9) 1
y(2,3,10) 0
y(2,4,1) 0
y(2,4,2) 1
y(2,4,3) 1
y(2,4,4) 0
y(2,4,5) 0
y(2,4,6) 1
y(2,4,7) 0
y(2,4,8) 1
y(2,4,9) 0
y(2,4,10) 1
y(2,5,1) 0
y(2,5,2) 1
y(2,5,3) 1
y(2,5,4) 0
y(2,5,5) 0
y(2,5,6) 1
y(2,5,7) 0
y(2,5,8) 0
y(2,5,9) 0
y(2,5,10) 0
y(2,6,1) 1
y(2,6,2) 1
y(2,6,3) 1
y(2,6,4) 0
y(2,6,5) 0
y(2,6,6) 1
y(2,6,7) 0
y(2,6,8) 1
y(2,6,9) 1
y(2,6,10) 0
y(2,7,1) 0
y(2,7,2) 1
y(2,7,3) 1
y(2,7,4) 1
y(2,7,5) 1
y(2,7,6) 1
y(2,7,7) 0
y(2,7,8) 0
y(2,7,9) 1
y(2,7,10) 1
y(2,8,1) 0
y(2,8,2) 1
y(2,8,3) 1
y(2,8,4) 1
y(2,8,5) 0
y(2,8,6) 1
y(2,8,7) 0
y(2,8,8) 1
y(2,8,9) 1
y(2,8,10) 1
y(2,9,1) 0
y(2,9,2) 1
y(2,9,3) 1
y(2,9,4) 1
y(2,9,5) 1
y(2,9,6) 1
y(2,9,7) 0
y(2,9,8) 1
y(2,9,9) 1
y(2,9,10) 0
y(2,10,1) 0
y(2,10,2) 1
y(2,10,3) 1
y(2,10,4) 0
y(2,10,5) 1
y(2,10,6) 1
y(2,10,7) 0
y(2,10,8) 0
y(2,10,9) 1
y(2,10,10) 1
y(3,1,1) 1
y(3,1,2) 1
y(3,1,3) 1
y(3,1,4) 0
y(3,1,5) 0
y(3,1,6) 0
y(3,1,7) 1
y(3,1,8) 0
y(3,1,9) 0
y(3,1,10) 1
y(3,2,1) 1
y(3,2,2) 1
y(3,2,3) 0
y(3,2,4) 1
y(3,2,5) 0
y(3,2,6) 0
y(3,2,7) 1
y(3,2,8) 1
y(3,2,9) 0
y(3,2,10) 1
y(3,4,1) 1
y(3,4,2) 1
y(3,4,3) 1
y(3,4,4) 0
y(3,4,5) 0
y(3,4,6) 0
y(3,4,7) 1
y(3,4,8) 1
y(3,4,9) 0
y(3,4,10) 1
y(3,5,1) 0
y(3,5,2) 1
y(3,5,3) 1
y(3,5,4) 0
y(3,5,5) 0
y(3,5,6) 0
y(3,5,7) 1
y(3,5,8) 0
y(3,5,9) 0
y(3,5,10) 0
y(3,6,1) 1
y(3,6,2) 1
y(3,6,3) 1
y(3,6,4) 0
y(3,6,5) 0
y(3,6,6) 0
y(3,6,7) 1
y(3,6,8) 1
y(3,6,9) 0
y(3,6,10) 0
y(3,7,1) 1
y(3,7,2) 1
y(3,7,3) 0
y(3,7,4) 1
y(3,7,5) 1
y(3,7,6) 0
y(3,7,7) 1
y(3,7,8) 1
y(3,7,9) 1
y(3,7,10) 1
y(3,8,1) 1
y(3,8,2) 1
y(3,8,3) 1
y(3,8,4) 1
y(3,8,5) 0
y(3,8,6) 0
y(3,8,7) 0
y(3,8,8) 1
y(3,8,9) 0
y(3,8,10) 1
y(3,9,1) 1
y(3,9,2) 1
y(3,9,3) 1
y(3,9,4) 1
y(3,9,5) 1
y(3,9,6) 0
y(3,9,7) 1
y(3,9,8) 1
y(3,9,9) 0
y(3,9,10) 0
y(3,10,1) 0
y(3,10,2) 1
y(3,10,3) 1
y(3,10,4) 0
y(3,10,5) 1
y(3,10,6) 0
y(3,10,7) 1
y(3,10,8) 1
y(3,10,9) 0
y(3,10,10) 1
y(4,1,1) 0
y(4,1,2) 1
y(4,1,3) 0
y(4,1,4) 0
y(4,1,5) 1
y(4,1,6) 0
y(4,1,7) 0
y(4,1,8) 0
y(4,1,9) 0
y(4,1,10) 1
y(4,2,1) 1
y(4,2,2) 0
y(4,2,3) 0
y(4,2,4) 1
y(4,2,5) 1
y(4,2,6) 0
y(4,2,7) 1
y(4,2,8) 0
y(4,2,9) 1
y(4,2,10) 0
y(4,3,1) 0
y(4,3,2) 0
y(4,3,3) 0
y(4,3,4) 1
y(4,3,5) 1
y(4,3,6) 1
y(4,3,7) 0
y(4,3,8) 0
y(4,3,9) 1
y(4,3,10) 0
y(4,5,1) 0
y(4,5,2) 0
y(4,5,3) 1
y(4,5,4) 0
y(4,5,5) 1
y(4,5,6) 1
y(4,5,7) 1
y(4,5,8) 0
y(4,5,9) 0
y(4,5,10) 0
y(4,6,1) 1
y(4,6,2) 0
y(4,6,3) 0
y(4,6,4) 0
y(4,6,5) 1
y(4,6,6) 0
y(4,6,7) 1
y(4,6,8) 1
y(4,6,9) 1
y(4,6,10) 0
y(4,7,1) 0
y(4,7,2) 1
y(4,7,3) 0
y(4,7,4) 1
y(4,7,5) 1
y(4,7,6) 0
y(4,7,7) 0
y(4,7,8) 0
y(4,7,9) 1
y(4,7,10) 1
y(4,8,1) 0
y(4,8,2) 1
y(4,8,3) 0
y(4,8,4) 1
y(4,8,5) 0
y(4,8,6) 0
y(4,8,7) 0
y(4,8,8) 0
y(4,8,9) 1
y(4,8,10) 1
y(4,9,1) 0
y(4,9,2) 1
y(4,9,3) 1
y(4,9,4) 1
y(4,9,5) 1
y(4,9,6) 1
y(4,9,7) 0
y(4,9,8) 0
y(4,9,9) 1
y(4,9,10) 0
y(4,10,1) 0
y(4,10,2) 0
y(4,10,3) 0
y(4,10,4) 0
y(4,10,5) 1
y(4,10,6) 1
y(4,10,7) 1
y(4,10,8) 0
y(4,10,9) 1
y(4,10,10) 1
y(5,1,1) 1
y(5,1,2) 1
y(5,1,3) 0
y(5,1,4) 1
y(5,1,5) 1
y(5,1,6) 0
y(5,1,7) 0
y(5,1,8) 0
y(5,1,9) 1
y(5,1,10) 1
y(5,2,1) 1
y(5,2,2) 0
y(5,2,3) 0
y(5,2,4) 1
y(5,2,5) 1
y(5,2,6) 0
y(5,2,7) 1
y(5,2,8) 1
y(5,2,9) 1
y(5,2,10) 1
y(5,3,1) 1
y(5,3,2) 0
y(5,3,3) 0
y(5,3,4) 1
y(5,3,5) 1
y(5,3,6) 1
y(5,3,7) 0
y(5,3,8) 1
y(5,3,9) 1
y(5,3,10) 1
y(5,4,1) 1
y(5,4,2) 1
y(5,4,3) 0
y(5,4,4) 1
y(5,4,5) 0
y(5,4,6) 0
y(5,4,7) 0
y(5,4,8) 1
y(5,4,9) 1
y(5,4,10) 1
y(5,6,1) 1
y(5,6,2) 0
y(5,6,3) 0
y(5,6,4) 0
y(5,6,5) 1
y(5,6,6) 0
y(5,6,7) 0
y(5,6,8) 1
y(5,6,9) 1
y(5,6,10) 1
y(5,7,1) 1
y(5,7,2) 1
y(5,7,3) 0
y(5,7,4) 1
y(5,7,5) 1
y(5,7,6) 0
y(5,7,7) 0
y(5,7,8) 1
y(5,7,9) 1
y(5,7,10) 1
y(5,8,1) 1
y(5,8,2) 1
y(5,8,3) 0
y(5,8,4) 1
y(5,8,5) 0
y(5,8,6) 0
y(5,8,7) 0
y(5,8,8) 1
y(5,8,9) 1
y(5,8,10) 1
y(5,9,1) 1
y(5,9,2) 1
y(5,9,3) 1
y(5,9,4) 1
y(5,9,5) 1
y(5,9,6) 0
y(5,9,7) 0
y(5,9,8) 1
y(5,9,9) 1
y(5,9,10) 1
y(5,10,1) 0
y(5,10,2) 0
y(5,10,3) 0
y(5,10,4) 1
y(5,10,5) 1
y(5,10,6) 0
y(5,10,7) 1
y(5,10,8) 1
y(5,10,9) 1
y(5,10,10) 1
y(6,1,1) 0
y(6,1,2) 1
y(6,1,3) 1
y(6,1,4) 1
y(6,1,5) 0
y(6,1,6) 0
y(6,1,7) 0
y(6,1,8) 0
y(6,1,9) 0
y(6,1,10) 1
y(6,2,1) 0
y(6,2,2) 0
y(6,2,3) 0
y(6,2,4) 1
y(6,2,5) 1
y(6,2,6) 0
y(6,2,7) 1
y(6,2,8) 0
y(6,2,9) 0
y(6,2,10) 1
y(6,3,1) 0
y(6,3,2) 0
y(6,3,3) 0
y(6,3,4) 1
y(6,3,5) 1
y(6,3,6) 1
y(6,3,7) 0
y(6,3,8) 0
y(6,3,9) 1
y(6,3,10) 1
y(6,4,1) 0
y(6,4,2) 1
y(6,4,3) 1
y(6,4,4) 1
y(6,4,5) 0
y(6,4,6) 1
y(6,4,7) 0
y(6,4,8) 0
y(6,4,9) 0
y(6,4,10) 1
y(6,5,1) 0
y(6,5,2) 1
y(6,5,3) 1
y(6,5,4) 1
y(6,5,5) 0
y(6,5,6) 1
y(6,5,7) 1
y(6,5,8) 0
y(6,5,9) 0
y(6,5,10) 0
y(6,7,1) 0
y(6,7,2) 1
y(6,7,3) 0
y(6,7,4) 1
y(6,7,5) 1
y(6,7,6) 0
y(6,7,7) 0
y(6,7,8) 0
y(6,7,9) 1
y(6,7,10) 1
y(6,8,1) 0
y(6,8,2) 1
y(6,8,3) 1
y(6,8,4) 1
y(6,8,5) 0
y(6,8,6) 0
y(6,8,7) 0
y(6,8,8) 0
y(6,8,9) 0
y(6,8,10) 1
y(6,9,1) 0
y(6,9,2) 1
y(6,9,3) 1
y(6,9,4) 1
y(6,9,5) 1
y(6,9,6) 1
y(6,9,7) 0
y(6,9,8) 0
y(6,9,9) 0
y(6,9,10) 1
y(6,10,1) 0
y(6,10,2) 1
y(6,10,3) 1
y(6,10,4) 1
y(6,10,5) 1
y(6,10,6) 1
y(6,10,7) 1
y(6,10,8) 0
y(6,10,9) 1
y(6,10,10) 1
y(7,1,1) 0
y(7,1,2) 0
y(7,1,3) 1
y(7,1,4) 0
y(7,1,5) 0
y(7,1,6) 1
y(7,1,7) 0
y(7,1,8) 0
y(7,1,9) 0
y(7,1,10) 1
y(7,2,1) 1
y(7,2,2) 0
y(7,2,3) 0
y(7,2,4) 0
y(7,2,5) 0
y(7,2,6) 0
y(7,2,7) 1
y(7,2,8) 1
y(7,2,9) 0
y(7,2,10) 0
y(7,3,1) 0
y(7,3,2) 0
y(7,3,3) 1
y(7,3,4) 0
y(7,3,5) 0
y(7,3,6) 1
y(7,3,7) 0
y(7,3,8) 0
y(7,3,9) 0
y(7,3,10) 0
y(7,4,1) 1
y(7,4,2) 0
y(7,4,3) 1
y(7,4,4) 0
y(7,4,5) 0
y(7,4,6) 1
y(7,4,7) 1
y(7,4,8) 1
y(7,4,9) 0
y(7,4,10) 0
y(7,5,1) 0
y(7,5,2) 0
y(7,5,3) 1
y(7,5,4) 0
y(7,5,5) 0
y(7,5,6) 1
y(7,5,7) 1
y(7,5,8) 0
y(7,5,9) 0
y(7,5,10) 0
y(7,6,1) 1
y(7,6,2) 0
y(7,6,3) 1
y(7,6,4) 0
y(7,6,5) 0
y(7,6,6) 1
y(7,6,7) 1
y(7,6,8) 1
y(7,6,9) 0
y(7,6,10) 0
y(7,8,1) 0
y(7,8,2) 0
y(7,8,3) 1
y(7,8,4) 1
y(7,8,5) 0
y(7,8,6) 1
y(7,8,7) 0
y(7,8,8) 1
y(7,8,9) 0
y(7,8,10) 0
y(7,9,1) 0
y(7,9,2) 0
y(7,9,3) 1
y(7,9,4) 0
y(7,9,5) 1
y(7,9,6) 1
y(7,9,7) 0
y(7,9,8) 1
y(7,9,9) 0
y(7,9,10) 0
y(7,10,1) 0
y(7,10,2) 0
y(7,10,3) 1
y(7,10,4) 0
y(7,10,5) 0
y(7,10,6) 1
y(7,10,7) 1
y(7,10,8) 1
y(7,10,9) 0
y(7,10,10) 1
y(8,1,1) 0
y(8,1,2) 1
y(8,1,3) 0
y(8,1,4) 0
y(8,1,5) 1
y(8,1,6) 0
y(8,1,7) 1
y(8,1,8) 0
y(8,1,9) 0
y(8,1,10) 1
y(8,2,1) 1
y(8,2,2) 0
y(8,2,3) 0
y(8,2,4) 0
y(8,2,5) 1
y(8,2,6) 0
y(8,2,7) 1
y(8,2,8) 0
y(8,2,9) 0
y(8,2,10) 0
y(8,3,1) 0
y(8,3,2) 0
y(8,3,3) 0
y(8,3,4) 0
y(8,3,5) 1
y(8,3,6) 1
y(8,3,7) 1
y(8,3,8) 0
y(8,3,9) 1
y(8,3,10) 0
y(8,4,1) 1
y(8,4,2) 0
y(8,4,3) 1
y(8,4,4) 0
y(8,4,5) 1
y(8,4,6) 1
y(8,4,7) 1
y(8,4,8) 1
y(8,4,9) 0
y(8,4,10) 0
y(8,5,1) 0
y(8,5,2) 0
y(8,5,3) 1
y(8,5,4) 0
y(8,5,5) 1
y(8,5,6) 1
y(8,5,7) 1
y(8,5,8) 0
y(8,5,9) 0
y(8,5,10) 0
y(8,6,1) 1
y(8,6,2) 0
y(8,6,3) 0
y(8,6,4) 0
y(8,6,5) 1
y(8,6,6) 1
y(8,6,7) 1
y(8,6,8) 1
y(8,6,9) 1
y(8,6,10) 0
y(8,7,1) 1
y(8,7,2) 1
y(8,7,3) 0
y(8,7,4) 0
y(8,7,5) 1
y(8,7,6) 0
y(8,7,7) 1
y(8,7,8) 0
y(8,7,9) 1
y(8,7,10) 1
y(8,9,1) 1
y(8,9,2) 1
y(8,9,3) 1
y(8,9,4) 0
y(8,9,5) 1
y(8,9,6) 1
y(8,9,7) 1
y(8,9,8) 0
y(8,9,9) 1
y(8,9,10) 0
y(8,10,1) 0
y(8,10,2) 0
y(8,10,3) 0
y(8,10,4) 0
y(8,10,5) 1
y(8,10,6) 1
y(8,10,7) 1
y(8,10,8) 0
y(8,10,9) 1
y(8,10,10) 1
y(9,1,1) 0
y(9,1,2) 1
y(9,1,3) 0
y(9,1,4) 0
y(9,1,5) 0
y(9,1,6) 0
y(9,1,7) 1
y(9,1,8) 0
y(9,1,9) 0
y(9,1,10) 1
y(9,2,1) 1
y(9,2,2) 0
y(9,2,3) 0
y(9,2,4) 0
y(9,2,5) 0
y(9,2,6) 0
y(9,2,7) 1
y(9,2,8) 0
y(9,2,9) 0
y(9,2,10) 1
y(9,3,1) 0
y(9,3,2) 0
y(9,3,3) 0
y(9,3,4) 0
y(9,3,5) 0
y(9,3,6) 1
y(9,3,7) 0
y(9,3,8) 0
y(9,3,9) 1
y(9,3,10) 1
y(9,4,1) 1
y(9,4,2) 0
y(9,4,3) 0
y(9,4,4) 0
y(9,4,5) 0
y(9,4,6) 0
y(9,4,7) 1
y(9,4,8) 1
y(9,4,9) 0
y(9,4,10) 1
y(9,5,1) 0
y(9,5,2) 0
y(9,5,3) 0
y(9,5,4) 0
y(9,5,5) 0
y(9,5,6) 1
y(9,5,7) 1
y(9,5,8) 0
y(9,5,9) 0
y(9,5,10) 0
y(9,6,1) 1
y(9,6,2) 0
y(9,6,3) 0
y(9,6,4) 0
y(9,6,5) 0
y(9,6,6) 0
y(9,6,7) 1
y(9,6,8) 1
y(9,6,9) 1
y(9,6,10) 0
y(9,7,1) 1
y(9,7,2) 1
y(9,7,3) 0
y(9,7,4) 1
y(9,7,5) 0
y(9,7,6) 0
y(9,7,7) 1
y(9,7,8) 0
y(9,7,9) 1
y(9,7,10) 1
y(9,8,1) 0
y(9,8,2) 0
y(9,8,3) 0
y(9,8,4) 1
y(9,8,5) 0
y(9,8,6) 0
y(9,8,7) 0
y(9,8,8) 1
y(9,8,9) 0
y(9,8,10) 1
y(9,10,1) 0
y(9,10,2) 0
y(9,10,3) 0
y(9,10,4) 0
y(9,10,5) 0
y(9,10,6) 1
y(9,10,7) 1
y(9,10,8) 0
y(9,10,9) 1
y(9,10,10) 1
y(10,1,1) 1
y(10,1,2) 1
y(10,1,3) 0
y(10,1,4) 0
y(10,1,5) 0
y(10,1,6) 0
y(10,1,7) 0
y(10,1,8) 0
y(10,1,9) 0
y(10,1,10) 0
y(10,2,1) 1
y(10,2,2) 0
y(10,2,3) 0
y(10,2,4) 1
y(10,2,5) 0
y(10,2,6) 0
y(10,2,7) 1
y(10,2,8) 1
y(10,2,9) 0
y(10,2,10) 0
y(10,3,1) 1
y(10,3,2) 0
y(10,3,3) 0
y(10,3,4) 1
y(10,3,5) 0
y(10,3,6) 1
y(10,3,7) 0
y(10,3,8) 0
y(10,3,9) 1
y(10,3,10) 0
y(10,4,1) 1
y(10,4,2) 1
y(10,4,3) 1
y(10,4,4) 1
y(10,4,5) 0
y(10,4,6) 0
y(10,4,7) 0
y(10,4,8) 1
y(10,4,9) 0
y(10,4,10) 0
y(10,5,1) 1
y(10,5,2) 1
y(10,5,3) 1
y(10,5,4) 0
y(10,5,5) 0
y(10,5,6) 1
y(10,5,7) 0
y(10,5,8) 0
y(10,5,9) 0
y(10,5,10) 0
y(10,6,1) 1
y(10,6,2) 0
y(10,6,3) 0
y(10,6,4) 0
y(10,6,5) 0
y(10,6,6) 0
y(10,6,7) 0
y(10,6,8) 1
y(10,6,9) 0
y(10,6,10) 0
y(10,7,1) 1
y(10,7,2) 1
y(10,7,3) 0
y(10,7,4) 1
y(10,7,5) 1
y(10,7,6) 0
y(10,7,7) 0
y(10,7,8) 0
y(10,7,9) 1
y(10,7,10) 0
y(10,8,1) 1
y(10,8,2) 1
y(10,8,3) 1
y(10,8,4) 1
y(10,8,5) 0
y(10,8,6) 0
y(10,8,7) 0
y(10,8,8) 1
y(10,8,9) 0
y(10,8,10) 0
y(10,9,1) 1
y(10,9,2) 1
y(10,9,3) 1
y(10,9,4) 1
y(10,9,5) 1
y(10,9,6) 0
y(10,9,7) 0
y(10,9,8) 1
y(10,9,9) 0
y(10,9,10) 0
