results/solutions 6-hrs compact/abz6.out
Academic license - for non-commercial use only
Set parameter TimeLimit to value 21600

Gurobi Optimizer version 8.0.0 build v8.0.0rc0 (linux64)
Copyright (c) 2018, Gurobi Optimization, LLC

Read LP format model from file compact/abz6.lp
Reading time = 0.01 seconds
: 1900 rows, 1101 columns, 5600 nonzeros
Optimize a model with 1900 rows, 1101 columns and 5600 nonzeros
Variable types: 0 continuous, 1101 integer (1000 binary)
Coefficient statistics:
  Matrix range     [1e+00, 6e+03]
  Objective range  [1e+00, 1e+00]
  Bounds range     [1e+00, 1e+00]
  RHS range        [2e+01, 6e+03]
Presolve removed 0 rows and 100 columns
Presolve time: 0.01s
Presolved: 1900 rows, 1001 columns, 5600 nonzeros
Variable types: 0 continuous, 1001 integer (900 binary)

Root relaxation: objective 7.540000e+02, 537 iterations, 0.00 seconds

    Nodes    |    Current Node    |     Objective Bounds      |     Work
 Expl Unexpl |  Obj  Depth IntInf | Incumbent    BestBd   Gap | It/Node Time

     0     0  754.00000    0   82          -  754.00000      -     -    0s
     0     0  754.13718    0  176          -  754.13718      -     -    0s
     0     0  754.13718    0  163          -  754.13718      -     -    0s
     0     0  767.20463    0  165          -  767.20463      -     -    0s
     0     0  767.20687    0  167          -  767.20687      -     -    0s
     0     0  767.25438    0  167          -  767.25438      -     -    0s
     0     0  767.25438    0  153          -  767.25438      -     -    0s
     0     0  767.25438    0  167          -  767.25438      -     -    0s
     0     0  767.25438    0  165          -  767.25438      -     -    0s
     0     0  767.25438    0  118          -  767.25438      -     -    0s
     0     0  767.25438    0  117          -  767.25438      -     -    0s
     0     0  767.52973    0  113          -  767.52973      -     -    0s
     0     0  767.52973    0   42          -  767.52973      -     -    0s
     0     0  767.52973    0  103          -  767.52973      -     -    0s
     0     0  769.39990    0  136          -  769.39990      -     -    0s
     0     0  769.39990    0  135          -  769.39990      -     -    0s
     0     0  775.12059    0  141          -  775.12059      -     -    0s
     0     0  776.23087    0  147          -  776.23087      -     -    0s
     0     0  776.23087    0  147          -  776.23087      -     -    0s
     0     0  778.84200    0  151          -  778.84200      -     -    0s
     0     0  778.84200    0  142          -  778.84200      -     -    0s
     0     0  779.01702    0  143          -  779.01702      -     -    0s
     0     0  779.26458    0  131          -  779.26458      -     -    0s
     0     0  779.39874    0  128          -  779.39874      -     -    0s
     0     0  779.39874    0  128          -  779.39874      -     -    0s
     0     0  779.39874    0  135          -  779.39874      -     -    0s
     0     0  779.68171    0  147          -  779.68171      -     -    0s
     0     0  779.68171    0  129          -  779.68171      -     -    0s
     0     0  779.68171    0  148          -  779.68171      -     -    0s
     0     0  779.68171    0  160          -  779.68171      -     -    0s
     0     0  779.68171    0  159          -  779.68171      -     -    0s
     0     0  779.68171    0  170          -  779.68171      -     -    0s
     0     0  779.68171    0  122          -  779.68171      -     -    0s
     0     0  779.68171    0  130          -  779.68171      -     -    0s
     0     0  779.68171    0  108          -  779.68171      -     -    0s
     0     0  779.68171    0  139          -  779.68171      -     -    0s
     0     0  779.68171    0  128          -  779.68171      -     -    0s
     0     0  780.00000    0   70          -  780.00000      -     -    0s
     0     0  780.00000    0   45          -  780.00000      -     -    0s
H    0     0                    1490.0000000  780.00000  47.7%     -    1s
H    0     0                    1488.0000000  780.00000  47.6%     -    1s
H    0     0                    1035.0000000  780.00000  24.6%     -    1s
     0     0  780.00000    0   30 1035.00000  780.00000  24.6%     -    1s
     0     0  780.13287    0  117 1035.00000  780.13287  24.6%     -    1s
     0     0  782.39240    0  103 1035.00000  782.39240  24.4%     -    1s
     0     0  782.39240    0   97 1035.00000  782.39240  24.4%     -    1s
     0     0  794.25197    0  105 1035.00000  794.25197  23.3%     -    1s
     0     0  794.79400    0  125 1035.00000  794.79400  23.2%     -    1s
     0     0  794.79400    0   88 1035.00000  794.79400  23.2%     -    1s
     0     0  794.79400    0  127 1035.00000  794.79400  23.2%     -    1s
     0     0  795.31043    0  101 1035.00000  795.31043  23.2%     -    1s
     0     0  795.31043    0  107 1035.00000  795.31043  23.2%     -    1s
     0     0  795.72785    0  111 1035.00000  795.72785  23.1%     -    1s
     0     0  795.90719    0  111 1035.00000  795.90719  23.1%     -    1s
     0     0  795.90719    0  110 1035.00000  795.90719  23.1%     -    1s
     0     0  799.68844    0  110 1035.00000  799.68844  22.7%     -    1s
     0     0  799.70660    0  119 1035.00000  799.70660  22.7%     -    1s
     0     0  799.70660    0  107 1035.00000  799.70660  22.7%     -    1s
     0     0  799.71993    0  133 1035.00000  799.71993  22.7%     -    1s
     0     0  799.71993    0  124 1035.00000  799.71993  22.7%     -    1s
     0     0  799.71993    0  111 1035.00000  799.71993  22.7%     -    1s
     0     0  799.71993    0  111 1035.00000  799.71993  22.7%     -    1s
     0     0  799.71993    0  100 1035.00000  799.71993  22.7%     -    1s
     0     0  799.71993    0  110 1035.00000  799.71993  22.7%     -    1s
     0     0  799.71993    0   87 1035.00000  799.71993  22.7%     -    1s
H    0     0                    1026.0000000  799.71993  22.1%     -    1s
     0     0  799.71993    0  111 1026.00000  799.71993  22.1%     -    1s
     0     0  799.71993    0   97 1026.00000  799.71993  22.1%     -    1s
     0     0  800.00000    0   49 1026.00000  800.00000  22.0%     -    1s
     0     0  800.00000    0   49 1026.00000  800.00000  22.0%     -    1s
H    0     0                     958.0000000  800.00000  16.5%     -    1s
     0     0  800.00000    0   28  958.00000  800.00000  16.5%     -    1s
     0     0  800.00000    0  105  958.00000  800.00000  16.5%     -    1s
     0     0  800.00000    0   84  958.00000  800.00000  16.5%     -    1s
     0     0  803.74633    0   89  958.00000  803.74633  16.1%     -    1s
     0     0  803.75843    0  105  958.00000  803.75843  16.1%     -    1s
     0     0  803.75843    0   98  958.00000  803.75843  16.1%     -    1s
     0     0  803.75843    0   89  958.00000  803.75843  16.1%     -    1s
     0     0  803.75843    0  106  958.00000  803.75843  16.1%     -    1s
     0     0  803.75843    0   99  958.00000  803.75843  16.1%     -    1s
     0     0  803.75843    0   99  958.00000  803.75843  16.1%     -    1s
     0     0  803.75843    0   89  958.00000  803.75843  16.1%     -    2s
     0     0  803.75843    0   95  958.00000  803.75843  16.1%     -    2s
     0     0  803.75843    0   89  958.00000  803.75843  16.1%     -    2s
     0     0  803.75843    0  130  958.00000  803.75843  16.1%     -    2s
     0     0  803.75843    0  103  958.00000  803.75843  16.1%     -    2s
     0     0  804.00000    0   21  958.00000  804.00000  16.1%     -    2s
     0     0  804.00000    0   21  958.00000  804.00000  16.1%     -    2s
     0     2  804.00000    0   21  958.00000  804.00000  16.1%     -    2s
*  330   142              10     951.0000000  827.84900  12.9%  15.8    2s
*  350   138              19     948.0000000  827.84900  12.7%  15.6    2s
H  428   148                     947.0000000  828.88934  12.5%  15.4    2s
H  501   138                     946.0000000  867.00000  8.35%  15.6    2s
H  530   129                     945.0000000  868.00000  8.15%  15.7    2s
* 1172   205              32     943.0000000  887.00000  5.94%  14.8    2s

Cutting planes:
  Learned: 7
  Gomory: 12
  Cover: 35
  Implied bound: 77
  MIR: 120
  StrongCG: 6
  Inf proof: 10
  Zero half: 2

Explored 3968 nodes (57781 simplex iterations) in 3.40 seconds
Thread count was 4 (of 4 available processors)

Solution count 10: 943 945 946 ... 1488

Optimal solution found (tolerance 1.00e-04)
Best objective 9.430000000000e+02, best bound 9.430000000000e+02, gap 0.0000%

Wrote result file 'compact/abz6.sol'

